NAME : random_3
COMMENT : 60 random nodes
TYPE : TSP
DIMENSION : 60
EDGE_WEIGHT_TYPE : EUC_2D
NODE_COORD_SECTION
1 575 585
2 513 170
3 962 386
4 180 134
5 230 300
6 383 686
7 201 221
8 917 698
9 428 357
10 112 184
11 857 488
12 836 762
13 161 108
14 236 271
15 549 826
16 750 509
17 585 993
18 287 825
19 157 321
20 517 535
21 641 683
22 886 447
23 688 406
24 583 538
25 630 452
26 126 942
27 590 228
28 200 245
29 810 641
30 896 949
31 949 543
32 355 383
33 354 895
34 322 215
35 358 189
36 797 598
37 369 261
38 974 952
39 75 175
40 316 256
41 275 855
42 681 589
43 930 912
44 789 650
45 811 468
46 534 282
47 171 443
48 275 578
49 881 651
50 188 573
51 642 792
52 353 495
53 459 317
54 570 480
55 65 13
56 682 534
57 251 901
58 649 361
59 662 450
60 645 62
EOF